0 9
1 5
5 1
8 8
10 2
11 1
12 8
13 9
15 6
18 3
22 4
23 2
24 1
25 5
26 9
27 2
28 4
31 7
32 8
35 1
36 1
38 9
39 3
40 2
43 6
44 5
45 8
48 1
52 7
53 2
54 4
55 9
58 1
60 5
61 8
63 6
64 8
65 2
66 9
71 4
75 4
76 8
77 3
79 9
80 6